1	1	1	0	2	88	3	5	4	17	5	64	6	66	7	80	8	47
2	2	1	10	2	0	3	54	4	68	5	59	6	43	7	50	8	78
3	3	1	30	2	59	3	0	4	22	5	41	6	92	7	26	8	96
4	4	1	95	2	19	3	52	4	0	5	16	6	13	7	95	8	41
5	5	1	12	2	76	3	38	4	85	5	0	6	30	7	71	8	11
6	6	1	68	2	13	3	101	4	42	5	36	6	0	7	63	8	102
7	7	1	28	2	103	3	22	4	58	5	58	6	75	7	0	8	38
8	8	1	68	2	22	3	58	4	10	5	41	6	46	7	61	8	0